n_boats=54;
n_periods=12;
capacity=[16,78,29,81,30,18,59,41,50,30,71,65,81,30,14,71,63,70,68,20,46,14,79,19,90,46,9,57,59,53,28,33,9,58,6,82,43,14,30,79,32,51,15,23,34,44,65,24,68,74,26,90,42,64];
crew=[6,19,17,25,9,6,34,14,15,15,30,35,38,14,5,40,19,24,22,9,20,3,18,9,43,11,5,11,20,12,7,19,4,16,3,34,22,4,13,33,13,19,4,9,13,25,32,6,32,29,13,20,13,28];
